(set-logic QF_S)
(declare-fun V20 () String )
(declare-fun V10 () String )
(declare-fun V61 () String )
(declare-fun V85 () String )
(declare-fun V33 () String )
(declare-fun V68 () String )
(declare-fun V4 () String )
(declare-fun V1 () String )
(declare-fun V3 () String )
(declare-fun V78 () String )
(declare-fun V60 () String )
(declare-fun V70 () String )
(declare-fun V11 () String )
(declare-fun V15 () String )
(declare-fun V42 () String )
(declare-fun V9 () String )
(declare-fun V80 () String )
(declare-fun V67 () String )
(declare-fun V77 () String )
(declare-fun V26 () String )
(declare-fun V22 () String )
(declare-fun V53 () String )
(declare-fun V25 () String )
(declare-fun V35 () String )
(declare-fun V5 () String )
(declare-fun V12 () String )
(declare-fun V65 () String )
(declare-fun V28 () String )
(declare-fun V29 () String )
(declare-fun V7 () String )
(declare-fun V24 () String )
(declare-fun V31 () String )
(declare-fun V36 () String )
(declare-fun V55 () String )
(declare-fun V84 () String )
(declare-fun V41 () String )
(declare-fun V38 () String )
(declare-fun V16 () String )
(declare-fun V59 () String )
(declare-fun V48 () String )
(declare-fun V63 () String )
(declare-fun V44 () String )
(declare-fun V19 () String )
(declare-fun V52 () String )
(declare-fun V71 () String )
(declare-fun V13 () String )
(declare-fun V51 () String )
(declare-fun V54 () String )
(declare-fun V89 () String )
(declare-fun V62 () String )
(declare-fun V8 () String )
(declare-fun V14 () String )
(declare-fun V21 () String )
(declare-fun V39 () String )
(declare-fun V47 () String )
(declare-fun V49 () String )
(declare-fun V64 () String )
(declare-fun V69 () String )
(declare-fun V56 () String )
(declare-fun V37 () String )
(declare-fun V34 () String )
(declare-fun V66 () String )
(declare-fun V74 () String )
(declare-fun V23 () String )
(declare-fun V32 () String )
(declare-fun V17 () String )
(declare-fun V45 () String )
(declare-fun V27 () String )
(declare-fun V73 () String )
(declare-fun V18 () String )
(declare-fun V57 () String )
(declare-fun V82 () String )
(declare-fun V6 () String )
(declare-fun V88 () String )
(declare-fun V40 () String )
(declare-fun V83 () String )
(declare-fun V81 () String )
(declare-fun V87 () String )
(declare-fun V91 () String )
(declare-fun V46 () String )
(declare-fun V0 () String )
(declare-fun V30 () String )
(declare-fun V90 () String )
(declare-fun V2 () String )
(declare-fun V86 () String )
(declare-fun V50 () String )
(declare-fun V43 () String )
(declare-fun V79 () String )
(declare-fun V72 () String )
(declare-fun V58 () String )
(declare-fun V76 () String )
(declare-fun V75 () String )
(assert (= "" "C" ) )
(assert (= "" "S" ) )
(assert (= "" V58 ) )
(assert (= "" V7 ) )
(assert (= "" V61 ) )
(assert (= "" V36 ) )
(assert (= "" V39 ) )
(assert (= "" V55 ) )
(assert (= "" V42 ) )
(assert (= "" (str.++ (str.++ V31 V32 ) V33 ) ) )
(assert (= "=" V0 ) )
(assert (= "C" V5 ) )
(assert (= "G" V14 ) )
(assert (= "S" V19 ) )
(assert (= "V" V13 ) )
(assert (= V89 V88 ) )
(assert (= V91 V90 ) )
(assert (= V66 V7 ) )
(assert (= V12 (str.++ (str.++ V46 "C" ) V47 ) ) )
(assert (= V12 (str.++ (str.++ V9 V10 ) V11 ) ) )
(assert (= V12 (str.++ (str.++ V25 V26 ) V27 ) ) )
(assert (= V67 (str.++ (str.++ V79 "c" ) V80 ) ) )
(assert (= V26 (str.++ (str.++ V77 "V" ) V78 ) ) )
(assert (= V10 (str.++ (str.++ V79 "C" ) V80 ) ) )
(assert (= V70 V65 ) )
(assert (= V83 (str.++ (str.++ V81 "v" ) V82 ) ) )
(assert (= V64 (str.++ (str.++ V81 "V" ) V82 ) ) )
(assert (= V33 V73 ) )
(assert (= V72 (str.++ (str.++ V74 "S" ) V75 ) ) )
(assert (= V76 (str.++ (str.++ V74 "s" ) V75 ) ) )
(assert (= V34 (str.++ (str.++ V84 "g" ) V85 ) ) )
(assert (= V21 (str.++ (str.++ V60 V61 ) V62 ) ) )
(assert (= V21 (str.++ (str.++ V35 V36 ) V37 ) ) )
(assert (= V21 (str.++ (str.++ V44 "T" ) V45 ) ) )
(assert (= V2 (str.++ (str.++ V57 V58 ) V59 ) ) )
(assert (= V2 (str.++ (str.++ V23 V12 ) V24 ) ) )
(assert (= V2 (str.++ (str.++ V38 V39 ) V40 ) ) )
(assert (= V2 (str.++ (str.++ V48 "C" ) V49 ) ) )
(assert (= V2 (str.++ (str.++ V6 V7 ) V8 ) ) )
(assert (= V16 (str.++ (str.++ V84 "G" ) V85 ) ) )
(assert (= V4 (str.++ (str.++ V50 "=" ) V51 ) ) )
(assert (= V4 (str.++ (str.++ V20 V21 ) V22 ) ) )
(assert (= V4 (str.++ (str.++ V1 V2 ) V3 ) ) )
(assert (= V18 (str.++ (str.++ V54 V55 ) V56 ) ) )
(assert (= V18 (str.++ (str.++ V41 V42 ) V43 ) ) )
(assert (= V18 (str.++ (str.++ V52 "G" ) V53 ) ) )
(assert (= V18 (str.++ (str.++ V28 V29 ) V30 ) ) )
(assert (= V18 (str.++ (str.++ V15 V16 ) V17 ) ) )
(assert (= (str.++ "C" V91 ) (str.++ "S" V90 ) ) )
(assert (= (str.++ V34 V29 ) (str.++ (str.++ V31 V32 ) V33 ) ) )
(assert (= (str.++ V34 V29 ) (str.++ (str.++ V71 V72 ) V73 ) ) )
(assert (= (str.++ (str.++ V89 "C" ) V91 ) (str.++ (str.++ V88 "S" ) V90 ) ) )
(assert (= (str.++ (str.++ V66 V67 ) V26 ) (str.++ (str.++ V86 "V" ) V87 ) ) )
(assert (= (str.++ (str.++ V66 V67 ) V26 ) (str.++ (str.++ V63 V64 ) V65 ) ) )
(assert (= (str.++ (str.++ V66 V67 ) V26 ) (str.++ (str.++ V68 V69 ) V70 ) ) )
( check-sat )
